benchmarks_CP/INST_36x36/20/inst36x36_20_73.dzn
S=6;
start=[|
-1,	-1,	-1,	-1,	13,	-1,	-1,	-1,	-1,	21,	26,	-1,	8,	-1,	-1,	-1,	-1,	-1,	-1,	23,	-1,	17,	-1,	-1,	-1,	14,	-1,	-1,	32,	-1,	-1,	-1,	-1,	-1,	-1,	-1|
32,	-1,	-1,	-1,	-1,	-1,	-1,	-1,	15,	-1,	-1,	-1,	-1,	11,	-1,	-1,	-1,	-1,	-1,	-1,	-1,	-1,	-1,	-1,	-1,	-1,	18,	-1,	-1,	-1,	-1,	-1,	-1,	24,	-1,	-1|
24,	-1,	-1,	-1,	8,	-1,	14,	-1,	-1,	-1,	17,	-1,	-1,	1,	-1,	-1,	-1,	-1,	-1,	10,	9,	33,	6,	-1,	-1,	-1,	-1,	-1,	-1,	-1,	-1,	-1,	34,	-1,	-1,	-1|
-1,	-1,	-1,	5,	-1,	-1,	-1,	-1,	-1,	-1,	-1,	-1,	-1,	-1,	-1,	-1,	-1,	-1,	32,	-1,	22,	-1,	-1,	28,	-1,	-1,	17,	-1,	-1,	-1,	-1,	-1,	-1,	-1,	-1,	-1|
14,	-1,	-1,	-1,	-1,	-1,	-1,	-1,	-1,	-1,	-1,	-1,	-1,	-1,	-1,	-1,	12,	-1,	-1,	1,	-1,	-1,	-1,	-1,	33,	-1,	-1,	-1,	-1,	-1,	-1,	-1,	35,	-1,	-1,	-1|
-1,	-1,	-1,	-1,	-1,	30,	-1,	-1,	-1,	-1,	7,	-1,	-1,	-1,	-1,	-1,	-1,	-1,	-1,	-1,	-1,	-1,	-1,	-1,	-1,	3,	-1,	-1,	-1,	-1,	-1,	-1,	-1,	-1,	-1,	-1|
21,	10,	-1,	1,	2,	-1,	-1,	-1,	-1,	-1,	-1,	-1,	-1,	9,	-1,	-1,	-1,	29,	16,	17,	28,	-1,	-1,	-1,	-1,	-1,	-1,	-1,	-1,	18,	-1,	-1,	27,	-1,	-1,	15|
-1,	-1,	17,	-1,	-1,	-1,	-1,	-1,	-1,	-1,	-1,	-1,	-1,	-1,	15,	-1,	-1,	-1,	-1,	6,	24,	-1,	-1,	-1,	7,	-1,	-1,	13,	22,	-1,	-1,	-1,	-1,	-1,	-1,	-1|
-1,	-1,	9,	-1,	-1,	12,	-1,	-1,	-1,	-1,	-1,	-1,	-1,	-1,	-1,	-1,	-1,	-1,	2,	-1,	-1,	-1,	-1,	-1,	-1,	-1,	-1,	23,	-1,	-1,	-1,	-1,	-1,	-1,	-1,	31|
-1,	6,	-1,	-1,	-1,	-1,	-1,	-1,	26,	-1,	-1,	-1,	-1,	-1,	-1,	-1,	-1,	-1,	-1,	-1,	13,	-1,	-1,	-1,	-1,	-1,	-1,	-1,	-1,	-1,	25,	-1,	-1,	-1,	20,	7|
-1,	-1,	-1,	-1,	-1,	-1,	-1,	-1,	-1,	-1,	-1,	-1,	-1,	-1,	-1,	-1,	-1,	-1,	10,	-1,	15,	-1,	-1,	1,	-1,	-1,	-1,	-1,	-1,	-1,	9,	-1,	-1,	-1,	-1,	-1|
-1,	-1,	-1,	3,	-1,	-1,	-1,	21,	-1,	35,	4,	34,	-1,	-1,	-1,	-1,	-1,	-1,	19,	-1,	33,	30,	27,	-1,	-1,	-1,	-1,	-1,	-1,	-1,	-1,	-1,	-1,	1,	-1,	-1|
-1,	-1,	30,	10,	-1,	-1,	15,	-1,	-1,	-1,	-1,	33,	-1,	-1,	-1,	7,	-1,	-1,	-1,	-1,	16,	-1,	-1,	-1,	-1,	-1,	25,	-1,	-1,	-1,	27,	-1,	-1,	28,	-1,	-1|
-1,	-1,	-1,	-1,	-1,	-1,	-1,	-1,	-1,	-1,	-1,	-1,	-1,	-1,	27,	-1,	-1,	-1,	-1,	-1,	-1,	-1,	-1,	-1,	-1,	-1,	-1,	7,	30,	-1,	-1,	-1,	-1,	35,	-1,	-1|
-1,	2,	-1,	-1,	-1,	-1,	-1,	-1,	-1,	-1,	-1,	-1,	36,	-1,	-1,	-1,	-1,	-1,	-1,	-1,	-1,	-1,	-1,	-1,	-1,	-1,	-1,	17,	-1,	-1,	-1,	-1,	-1,	8,	-1,	-1|
-1,	-1,	-1,	31,	-1,	22,	5,	-1,	-1,	24,	-1,	-1,	-1,	-1,	-1,	-1,	-1,	-1,	21,	35,	7,	1,	-1,	-1,	-1,	-1,	-1,	3,	-1,	-1,	-1,	-1,	25,	-1,	18,	-1|
-1,	25,	-1,	-1,	-1,	-1,	-1,	-1,	8,	-1,	-1,	-1,	-1,	2,	-1,	35,	-1,	-1,	-1,	-1,	-1,	36,	-1,	-1,	14,	11,	-1,	12,	26,	16,	22,	-1,	20,	-1,	-1,	-1|
-1,	-1,	-1,	-1,	-1,	-1,	-1,	-1,	-1,	-1,	-1,	-1,	31,	-1,	-1,	-1,	-1,	-1,	-1,	-1,	-1,	-1,	-1,	-1,	22,	-1,	-1,	-1,	-1,	-1,	-1,	3,	-1,	-1,	-1,	-1|
-1,	24,	-1,	-1,	-1,	13,	-1,	-1,	29,	16,	-1,	-1,	30,	-1,	-1,	-1,	-1,	-1,	-1,	-1,	-1,	28,	-1,	-1,	-1,	-1,	-1,	-1,	-1,	-1,	-1,	-1,	-1,	-1,	-1,	-1|
-1,	29,	31,	-1,	-1,	-1,	11,	3,	-1,	-1,	-1,	-1,	18,	36,	35,	-1,	-1,	-1,	12,	27,	-1,	-1,	-1,	-1,	-1,	-1,	-1,	-1,	-1,	17,	-1,	-1,	33,	-1,	-1,	-1|
-1,	-1,	-1,	-1,	-1,	7,	23,	-1,	-1,	-1,	-1,	-1,	-1,	-1,	-1,	-1,	-1,	-1,	-1,	-1,	-1,	-1,	-1,	-1,	-1,	-1,	-1,	10,	-1,	-1,	-1,	-1,	3,	-1,	-1,	-1|
-1,	-1,	27,	-1,	-1,	-1,	-1,	-1,	-1,	-1,	6,	-1,	16,	31,	-1,	-1,	-1,	-1,	-1,	-1,	1,	-1,	-1,	-1,	-1,	-1,	-1,	-1,	-1,	-1,	17,	4,	-1,	-1,	-1,	-1|
-1,	-1,	-1,	34,	-1,	-1,	-1,	-1,	-1,	-1,	-1,	26,	5,	28,	-1,	-1,	-1,	-1,	-1,	21,	-1,	29,	13,	-1,	-1,	-1,	-1,	18,	-1,	3,	20,	-1,	-1,	-1,	30,	-1|
-1,	-1,	-1,	26,	-1,	33,	13,	-1,	18,	-1,	-1,	5,	-1,	-1,	17,	-1,	3,	-1,	-1,	-1,	-1,	-1,	-1,	-1,	-1,	23,	-1,	-1,	-1,	-1,	-1,	21,	-1,	-1,	-1,	-1|
-1,	-1,	-1,	-1,	-1,	28,	-1,	-1,	14,	-1,	5,	-1,	-1,	-1,	-1,	-1,	17,	-1,	3,	-1,	-1,	-1,	-1,	-1,	21,	-1,	-1,	2,	-1,	-1,	-1,	13,	-1,	-1,	-1,	-1|
-1,	-1,	-1,	-1,	-1,	9,	-1,	-1,	-1,	-1,	-1,	-1,	-1,	-1,	-1,	28,	-1,	-1,	-1,	-1,	5,	-1,	-1,	-1,	16,	-1,	-1,	-1,	-1,	-1,	-1,	1,	-1,	-1,	-1,	17|
-1,	-1,	-1,	-1,	-1,	-1,	-1,	-1,	-1,	-1,	-1,	-1,	34,	-1,	-1,	30,	-1,	-1,	-1,	-1,	-1,	22,	-1,	-1,	32,	-1,	-1,	-1,	-1,	-1,	4,	-1,	-1,	-1,	-1,	35|
-1,	3,	-1,	-1,	-1,	-1,	-1,	-1,	-1,	-1,	-1,	-1,	-1,	-1,	-1,	-1,	-1,	-1,	-1,	-1,	-1,	-1,	32,	35,	-1,	12,	-1,	-1,	-1,	24,	-1,	-1,	-1,	-1,	-1,	-1|
-1,	-1,	-1,	-1,	-1,	11,	-1,	-1,	-1,	-1,	-1,	-1,	-1,	-1,	-1,	-1,	-1,	-1,	1,	-1,	-1,	-1,	-1,	-1,	35,	-1,	-1,	-1,	-1,	23,	-1,	-1,	-1,	3,	-1,	18|
-1,	35,	-1,	-1,	-1,	10,	-1,	22,	-1,	-1,	-1,	-1,	32,	-1,	-1,	6,	-1,	-1,	-1,	13,	-1,	-1,	-1,	-1,	-1,	-1,	-1,	20,	3,	-1,	16,	-1,	-1,	-1,	-1,	24|
-1,	-1,	-1,	-1,	-1,	-1,	-1,	-1,	-1,	-1,	-1,	2,	9,	-1,	12,	-1,	-1,	-1,	-1,	-1,	-1,	-1,	-1,	-1,	-1,	-1,	-1,	-1,	10,	25,	-1,	-1,	-1,	15,	-1,	34|
-1,	-1,	24,	-1,	35,	-1,	28,	-1,	-1,	23,	19,	-1,	-1,	-1,	-1,	-1,	-1,	27,	-1,	29,	-1,	-1,	-1,	-1,	5,	-1,	32,	33,	14,	-1,	-1,	-1,	2,	-1,	7,	-1|
-1,	-1,	-1,	-1,	-1,	-1,	21,	13,	-1,	-1,	-1,	-1,	-1,	-1,	-1,	33,	-1,	-1,	-1,	-1,	-1,	-1,	7,	10,	-1,	-1,	11,	-1,	-1,	-1,	-1,	-1,	-1,	-1,	-1,	-1|
-1,	34,	-1,	-1,	-1,	32,	-1,	-1,	-1,	-1,	-1,	16,	11,	-1,	-1,	-1,	-1,	-1,	-1,	-1,	21,	-1,	-1,	12,	9,	-1,	-1,	31,	-1,	15,	-1,	18,	-1,	-1,	-1,	22|
-1,	-1,	-1,	-1,	33,	-1,	-1,	-1,	20,	-1,	14,	-1,	-1,	-1,	-1,	-1,	-1,	-1,	-1,	-1,	25,	-1,	8,	-1,	-1,	-1,	-1,	-1,	-1,	-1,	-1,	-1,	-1,	-1,	-1,	-1|
-1,	-1,	-1,	-1,	-1,	6,	-1,	-1,	-1,	30,	25,	-1,	-1,	-1,	-1,	-1,	-1,	-1,	-1,	-1,	-1,	-1,	-1,	-1,	12,	-1,	-1,	-1,	-1,	-1,	-1,	-1,	4,	-1,	-1,	-1|];
